{
  "name": "Browser",
  "description": "The default browser of SmartDisplayPi",
  "version": 1,
  "icon": "ie.png",
  "developer": "The Fake Slim Shady",
  "license": "MIT",
  "homepage": null,
  "git": null,
  "screenshots": ["1.png", "2.png", "3.png", "4.png"],
  "app": {
    "type": "LOCAL_HTML",
    "source": "browser.html"
  }
}
